;---
; using 8-bit bit-vectors as characters
; check if regexA is not a subset of regexB
; regexA = ^(\+|\-)?([0-8]*\.?[0-8]+|[0-8]+\.?[0-8]*)((e|E)(\+|\-)?[0-8]+)?\z
; regexB = ^(\+|\-)?([0-9]*\.?[0-9]+|[0-9]+\.?[0-9]*)((e|E)(\+|\-)?[0-9]+)?\z
;---
(set-info :status unsat)
(set-option :print-success true)
(set-logic QF_BVRE)

(declare-const regexA (RegEx String))
(declare-const regexB (RegEx String))
(declare-const x String)

(assert (= regexA (re.++ (str.to_re "")(re.++ (re.opt (re.union (re.range "+" "+") (re.range "-" "-")))(re.++ (re.union (re.++ (re.* (re.range "0" "8"))(re.++ (re.opt (re.range "." ".")) (re.+ (re.range "0" "8")))) (re.++ (re.+ (re.range "0" "8"))(re.++ (re.opt (re.range "." ".")) (re.* (re.range "0" "8")))))(re.++ (re.opt (re.++ (re.union (re.range "E" "E") (re.range "e" "e"))(re.++ (re.opt (re.union (re.range "+" "+") (re.range "-" "-"))) (re.+ (re.range "0" "8"))))) (str.to_re "")))))))

(assert (= regexB (re.++ (str.to_re "")(re.++ (re.opt (re.union (re.range "+" "+") (re.range "-" "-")))(re.++ (re.union (re.++ (re.* (re.range "0" "9"))(re.++ (re.opt (re.range "." ".")) (re.+ (re.range "0" "9")))) (re.++ (re.+ (re.range "0" "9"))(re.++ (re.opt (re.range "." ".")) (re.* (re.range "0" "9")))))(re.++ (re.opt (re.++ (re.union (re.range "E" "E") (re.range "e" "e"))(re.++ (re.opt (re.union (re.range "+" "+") (re.range "-" "-"))) (re.+ (re.range "0" "9"))))) (str.to_re "")))))))

;(assert (not (re-subset regexA regexB)))
;check that the difference is nonempty, contains some x
(assert (str.in_re x regexA))
(assert (not (str.in_re x regexB)))
(check-sat)
